(set-info :smt-lib-version 2.6)
(set-logic QF_FXP)
(set-info :category "crafted")
(set-info :source |Alberto Griggio <griggio@fbk.eu>. These benchmarks were used for the evaluation in the following paper: L. Haller, A. Griggio, M. Brain, D. Kroening: Deciding floating-point logic with systematic abstraction. FMCAD 2012. Real-numbered literals have been automatically translated by MathSAT|)
(set-info :status sat)
;; MathSAT API call trace ;; generated on 05/20/15 17:24:51 
(declare-fun x () (_ SFXP 32 16))
(declare-fun y () (_ SFXP 32 16))
(define-fun _t_3 () RoundingMode RNE)
(define-fun _t_10 () (_ SFXP 32 16) (sfxp #x00030000 16))
(define-fun _t_11 () (_ SFXP 32 16) x)
(define-fun _t_12 () (_ SFXP 32 16) (sfxp.mul Wrapping roundTowardNegative _t_11 _t_11))
(define-fun _t_13 () (_ SFXP 32 16) (sfxp.mul Wrapping roundTowardNegative _t_11 _t_12))
(define-fun _t_14 () (_ SFXP 32 16) y)
(define-fun _t_15 () (_ SFXP 32 16) (sfxp.mul Wrapping roundTowardNegative _t_14 _t_14))
(define-fun _t_16 () (_ SFXP 32 16) (sfxp.mul Wrapping roundTowardNegative _t_14 _t_15))
(define-fun _t_17 () (_ SFXP 32 16) (sfxp.add Wrapping _t_13 _t_16))
(define-fun _t_18 () (_ SFXP 32 16) (sfxp.mul Wrapping roundTowardNegative _t_11 _t_14))
(define-fun _t_19 () (_ SFXP 32 16) (sfxp.mul Wrapping roundTowardNegative _t_10 _t_18))
(define-fun _t_20 () Bool (sfxp.leq _t_19 _t_17))
(assert _t_20)
(define-fun _t_22 () (_ SFXP 32 16) (sfxp #x00001999 16))
(define-fun _t_23 () (_ SFXP 32 16) (sfxp.add Wrapping _t_12 _t_15))
(define-fun _t_24 () Bool (sfxp.leq _t_22 _t_23))
(assert _t_24)
(define-fun _t_26 () (_ SFXP 32 16) (sfxp #x00040000 16))
(define-fun _t_28 () (_ SFXP 32 16) (sfxp #x00010000 16))
(define-fun _t_29 () (_ SFXP 32 16) (sfxp.add Wrapping _t_11 _t_28))
(define-fun _t_30 () (_ SFXP 32 16) (sfxp.mul Wrapping roundTowardNegative _t_11 _t_29))
(define-fun _t_31 () (_ SFXP 32 16) (sfxp.add Wrapping _t_15 _t_30))
(define-fun _t_32 () (_ SFXP 32 16) (sfxp.mul Wrapping roundTowardNegative _t_23 _t_31))
(define-fun _t_33 () (_ SFXP 32 16) (sfxp.mul Wrapping roundTowardNegative _t_18 _t_26))
(define-fun _t_34 () Bool (sfxp.leq _t_32 _t_33))
(assert _t_34)
(define-fun _t_36 () (_ SFXP 32 16) (sfxp #x00030000 16))
(define-fun _t_37 () Bool (sfxp.leq _t_11 _t_10))
(define-fun _t_38 () Bool (sfxp.leq _t_36 _t_11))
(define-fun _t_39 () Bool (and _t_37 _t_38))
(assert _t_39)
(define-fun _t_40 () Bool (sfxp.leq _t_14 _t_10))
(define-fun _t_41 () Bool (sfxp.leq _t_36 _t_14))
(define-fun _t_42 () Bool (and _t_40 _t_41))
(assert _t_42)
(check-sat)
(exit)
